(declare-fun v14 () (_ BitVec 10))
(declare-fun v19 () (_ BitVec 3))
(declare-fun a71 () (Array (_ BitVec 16) (_ BitVec 7)))
(assert
(let (($e15 (_ bv1 1)))
(let (($e23 (_ bv32767 15)))
(let (($e33 (_ bv0 7)))
(let (($e39 (_ bv127 7)))
(let (($e110                    $e15     ))
(let (($e112                    $e23      ))
(let (($e113 (concat $e112 $e110)))
(let (($e114 (select a71 $e113)))
(let (($e171 (concat $e33 v19)))
(let (($e172              v14 ))
(let (($e173               $e171              ))
(let (($e174 (bvand        $e173         $e172 )))
(let (($e176                    $e39      ))
(let (($e177 (concat $e176 v19)))
(let (($e178 (bvand $e177 $e174)))
(let (($e704 (   extract      $e114)))
(let (($e705              $e704          ))
(let (($e706             $e705 ))
             (ite        $e706  $e174 $e178)
                                                                                                                                                                                                                                                                                                                                                                                                                                                                                                                                                                                                                                                                                                                                                                                                                                                                                                                                                                                                                                                                                                                                                                                                                                                                                                                                                                                                                                                                                                                                                                                                                                                                                                                                                                                                                                                                                                                                                                                                                                                                                                                                                                                                                                                                                                                                                                                                                                                                                                                                                                                                                                                                                                                                                                                                                                                                                                                                                                                                                                                                                         )))                                                                                                                                                                                                                                                                                                                                                                                                                                                                                                                                             ))) ))))                                                        ))) )                                             )     )         )       )              )
